c Addition of two binary numbers: 1001101 and 10101
p cnf 28 79
-1 9 16 0
-1 -9 -16 0
1 -9 16 0
1 9 -16 0
-22 9 0
-22 16 0
-9 -16 22 0
-2 10 -17 -22 0
-2 -10 17 -22 0
-2 -10 -17 22 0
-2 10 17 22 0
2 -10 17 22 0
2 10 -17 22 0
2 10 17 -22 0
2 -10 -17 -22 0
-23 10 17 0
-23 10 22 0
-23 17 22 0
23 -10 -17 0
23 -10 -22 0
23 -17 -22 0
-3 11 -18 -23 0
-3 -11 18 -23 0
-3 -11 -18 23 0
-3 11 18 23 0
3 -11 18 23 0
3 11 -18 23 0
3 11 18 -23 0
3 -11 -18 -23 0
-24 11 18 0
-24 11 23 0
-24 18 23 0
24 -11 -18 0
24 -11 -23 0
24 -18 -23 0
-4 12 -19 -24 0
-4 -12 19 -24 0
-4 -12 -19 24 0
-4 12 19 24 0
4 -12 19 24 0
4 12 -19 24 0
4 12 19 -24 0
4 -12 -19 -24 0
-25 12 19 0
-25 12 24 0
-25 19 24 0
25 -12 -19 0
25 -12 -24 0
25 -19 -24 0
-5 13 -20 -25 0
-5 -13 20 -25 0
-5 -13 -20 25 0
-5 13 20 25 0
5 -13 20 25 0
5 13 -20 25 0
5 13 20 -25 0
5 -13 -20 -25 0
-26 13 20 0
-26 13 25 0
-26 20 25 0
26 -13 -20 0
26 -13 -25 0
26 -20 -25 0
-6 14 26 0
-6 -14 -26 0
6 -14 26 0
6 14 -26 0
-27 14 0
-27 26 0
-14 -26 27 0
-7 15 27 0
-7 -15 -27 0
7 -15 27 0
7 15 -27 0
-28 15 0
-28 27 0
-15 -27 28 0
-8 28 0
-28 8 0
9 0
-10 0
11 0
12 0
-13 0
-14 0
15 0
16 0
-17 0
18 0
-19 0
20 0
-21 0
